p cnf 150 200
4 21 34 51 0
4 21 34 -51 0
21 -34 40 52 0
21 -34 40 -52 0
1 -21 40 53 0
1 -21 40 -53 0
-21 39 40 54 0
-21 39 40 -54 0
20 29 41 55 0
20 29 41 -55 0
-20 39 41 56 0
-20 39 41 -56 0
39 -40 41 57 0
39 -40 41 -57 0
-40 -41 42 58 0
-40 -41 42 -58 0
-40 -41 -42 59 0
-40 -41 -42 -59 0
1 25 -39 60 0
1 25 -39 -60 0
2 -25 -39 61 0
2 -25 -39 -61 0
-2 5 -39 62 0
-2 5 -39 -62 0
-1 4 5 63 0
-1 4 5 -63 0
15 26 33 64 0
15 26 33 -64 0
15 26 -33 65 0
15 26 -33 -65 0
-5 -15 26 66 0
-5 -15 26 -66 0
-5 -26 31 67 0
-5 -26 31 -67 0
-5 -26 -31 68 0
-5 -26 -31 -68 0
6 9 47 69 0
6 9 47 -69 0
9 37 38 70 0
9 37 38 -70 0
9 14 -38 71 0
9 14 -38 -71 0
-14 -38 -47 72 0
-14 -38 -47 -72 0
-9 11 37 73 0
-9 11 37 -73 0
-9 -11 37 74 0
-9 -11 37 -74 0
24 -37 48 75 0
24 -37 48 -75 0
24 46 -48 76 0
24 46 -48 -76 0
-24 -37 46 77 0
-24 -37 46 -77 0
16 18 -46 78 0
16 18 -46 -78 0
-16 18 -46 79 0
-16 18 -46 -79 0
-18 -37 -46 80 0
-18 -37 -46 -80 0
-4 -6 15 81 0
-4 -6 15 -81 0
-4 13 -15 82 0
-4 13 -15 -82 0
-4 -13 -15 83 0
-4 -13 -15 -83 0
-1 -6 38 84 0
-1 -6 38 -84 0
3 -9 35 85 0
3 -9 35 -85 0
7 43 44 86 0
7 43 44 -86 0
7 29 43 87 0
7 29 43 -87 0
-8 -29 44 88 0
-8 -29 44 -88 0
-29 -32 48 89 0
-29 -32 48 -89 0
-14 30 46 90 0
-14 30 46 -90 0
-1 -14 -30 91 0
-1 -14 -30 -91 0
-11 20 49 92 0
-11 20 49 -92 0
20 -44 -49 93 0
20 -44 -49 -93 0
16 22 -27 94 0
16 22 -27 -94 0
13 -19 -35 95 0
13 -19 -35 -95 0
2 19 -33 96 0
2 19 -33 -96 0
2 19 -28 97 0
2 19 -28 -97 0
33 -34 -44 98 0
33 -34 -44 -98 0
-33 -44 50 99 0
-33 -44 50 -99 0
5 30 -48 100 0
5 30 -48 -100 0
10 22 -50 101 0
10 22 -50 -101 0
-10 22 -34 102 0
-10 22 -34 -102 0
1 10 -47 103 0
1 10 -47 -103 0
-10 -25 -47 104 0
-10 -25 -47 -104 0
-25 -27 50 105 0
-25 -27 50 -105 0
11 21 23 106 0
11 21 23 -106 0
-3 11 23 107 0
-3 11 23 -107 0
-3 6 -50 108 0
-3 6 -50 -108 0
-6 23 -50 109 0
-6 23 -50 -109 0
-31 -43 44 110 0
-31 -43 44 -110 0
-7 16 -26 111 0
-7 16 -26 -111 0
-23 28 -38 112 0
-23 28 -38 -112 0
19 28 50 113 0
19 28 50 -113 0
-18 45 49 114 0
-18 45 49 -114 0
-2 -16 -48 115 0
-2 -16 -48 -115 0
7 14 -42 116 0
7 14 -42 -116 0
12 25 -36 117 0
12 25 -36 -117 0
10 -24 -45 118 0
10 -24 -45 -118 0
-21 32 -42 119 0
-21 32 -42 -119 0
12 -18 -27 120 0
12 -18 -27 -120 0
-13 -23 -24 121 0
-13 -23 -24 -121 0
25 29 38 122 0
25 29 38 -122 0
-8 43 -45 123 0
-8 43 -45 -123 0
-2 -12 13 124 0
-2 -12 13 -124 0
-7 14 30 125 0
-7 14 30 -125 0
-8 -17 -19 126 0
-8 -17 -19 -126 0
8 -22 49 127 0
8 -22 49 -127 0
-12 -17 33 128 0
-12 -17 33 -128 0
27 -29 32 129 0
27 -29 32 -129 0
8 -12 -13 130 0
8 -12 -13 -130 0
24 -31 47 131 0
24 -31 47 -131 0
-3 36 47 132 0
-3 36 47 -132 0
3 12 34 133 0
3 12 34 -133 0
-7 -16 36 134 0
-7 -16 36 -134 0
-22 31 48 135 0
-22 31 48 -135 0
17 -22 -49 136 0
17 -22 -49 -136 0
-17 -19 32 137 0
-17 -19 32 -137 0
-20 27 36 138 0
-20 27 36 -138 0
18 -32 -35 139 0
18 -32 -35 -139 0
3 -28 -30 140 0
3 -28 -30 -140 0
17 34 42 141 0
17 34 42 -141 0
-32 -43 -49 142 0
-32 -43 -49 -142 0
17 -28 -43 143 0
17 -28 -43 -143 0
-23 35 -45 144 0
-23 35 -45 -144 0
-10 31 -36 145 0
-10 31 -36 -145 0
27 -41 42 146 0
27 -41 42 -146 0
35 -36 45 147 0
35 -36 45 -147 0
8 -30 45 148 0
8 -30 45 -148 0
4 28 -35 149 0
4 28 -35 -149 0
6 -11 -20 150 0
6 -11 -20 -150 0

